Constructor : 
	simulation seed: 10
	output path: ./out/Small
	input data folder ./in/MILPexp
	output data folder ./out/Small/S5D2U3/10
	loading data from ./in/MILPexp
	initializing MILP Solver
Set parameter Username
Set parameter TimeLimit to value 86400
Set parameter MemLimit to value 64
Set parameter Method to value 4
Academic license - for non-commercial use only - expires 2023-04-21
	 Setting up MILP
6, 6
	 Saving MILP in ./out/Small/S5D2U3/10/MILP-concurrent/model.lp
Warning: linear constraint 33332 and linear constraint 37007 have the same name "socInit_1"
Gurobi Optimizer version 9.5.1 build v9.5.1rc2 (linux64)
Thread count: 24 physical cores, 48 logical processors, using up to 24 threads
Optimize a model with 38126 rows, 565 columns and 162585 nonzeros
Model fingerprint: 0xa53cf84f
Variable types: 43 continuous, 522 integer (522 binary)
Coefficient statistics:
  Matrix range     [1e+00, 2e+05]
  Objective range  [1e+00, 1e+00]
  Bounds range     [1e+00, 1e+00]
  RHS range        [1e+00, 6e+05]
Presolve removed 11985 rows and 154 columns
Presolve time: 0.74s
Presolved: 26141 rows, 411 columns, 111031 nonzeros
Variable types: 34 continuous, 377 integer (377 binary)

Starting sifting (using simplex for sub-problems)...

    Iter     Pivots    Primal Obj      Dual Obj        Time
       0        258    -infinity      1.4949272e+01      1s

Sifting complete


Root relaxation: objective 1.333333e+01, 274 iterations, 0.17 seconds (0.10 work units)

    Nodes    |    Current Node    |     Objective Bounds      |     Work
 Expl Unexpl |  Obj  Depth IntInf | Incumbent    BestBd   Gap | It/Node Time

     0     0   13.33333    0   43          -   13.33333      -     -    1s
     0     0   13.79310    0   75          -   13.79310      -     -    1s
     0     0   13.79310    0   77          -   13.79310      -     -    1s
     0     0   16.27216    0  138          -   16.27216      -     -    2s
     0     0   16.46879    0  142          -   16.46879      -     -    2s
     0     0   16.46879    0  147          -   16.46879      -     -    2s
     0     0   17.22810    0  132          -   17.22810      -     -    3s
H    0     0                    2443.0096874   17.65910  99.3%     -    3s
     0     0   17.65910    0  133 2443.00969   17.65910  99.3%     -    3s
     0     0   17.65910    0  138 2443.00969   17.65910  99.3%     -    3s
H    0     0                    2063.1622320   17.65910  99.1%     -    3s
     0     0   18.33887    0  122 2063.16223   18.33887  99.1%     -    3s
     0     0   18.49487    0  125 2063.16223   18.49487  99.1%     -    4s
     0     0   18.49487    0  125 2063.16223   18.49487  99.1%     -    4s
     0     0   18.49487    0  122 2063.16223   18.49487  99.1%     -    4s
     0     0   18.49487    0  126 2063.16223   18.49487  99.1%     -    4s
     0     0   18.49487    0  125 2063.16223   18.49487  99.1%     -    5s
     0     0   18.49487    0  110 2063.16223   18.49487  99.1%     -    5s
     0     0   18.49487    0  109 2063.16223   18.49487  99.1%     -    6s
     0     0   18.49487    0  116 2063.16223   18.49487  99.1%     -    6s
     0     0   18.49487    0  107 2063.16223   18.49487  99.1%     -    8s
     0     0   18.49487    0  108 2063.16223   18.49487  99.1%     -    8s
     0     0   18.49487    0  113 2063.16223   18.49487  99.1%     -    9s
H    0     0                    2023.1622320   18.49487  99.1%     -    9s
     0     0   18.49487    0  108 2023.16223   18.49487  99.1%     -    9s
H    0     0                    1531.4285714   19.95587  98.7%     -   11s
     0     0   19.95587    0  101 1531.42857   19.95587  98.7%     -   11s
     0     0   19.95587    0  101 1531.42857   19.95587  98.7%     -   12s
     0     2   19.95587    0  101 1531.42857   19.95587  98.7%     -   13s
     7    16   23.33333    3   88 1531.42857   19.95587  98.7%  92.9   15s
   164   172   40.00000    9   57 1531.42857   20.18746  98.7%  79.3   27s
H  170   172                    1491.4285714   20.18746  98.6%  78.6   27s
   366   334 1471.42857   17   24 1491.42857   20.18746  98.6%  61.1   30s
   519   435 1471.42857   22   50 1491.42857   20.18746  98.6%  54.6   42s
H  540   435                    1491.4285713   20.18746  98.6%  53.9   42s
   813   595   40.00000   22   61 1491.42857   20.18746  98.6%  53.7   45s
  1631   824   40.00000   14   52 1491.42857   38.22871  97.4%  47.6   50s
  2866  1358 1051.58112   34   50 1491.42857   40.00000  97.3%  46.9   55s
  5007  1857 1011.58112   23  101 1491.42857   40.00000  97.3%  46.7   63s
  5017  1864 1031.58112   22  119 1491.42857   40.00000  97.3%  46.6   65s
  5022  1871   40.00000   11  101 1491.42857   40.00000  97.3%  47.1   71s
  5046  1896   40.00000   14  105 1491.42857   40.00000  97.3%  47.6   75s
  5202  1969  245.48255   18   66 1491.42857   40.00000  97.3%  49.6   80s
  5268  1974   40.00000   19  101 1491.42857   40.00000  97.3%  49.9   88s
  5405  2009   40.00000   22   99 1491.42857   40.00000  97.3%  51.4   90s
  5960  2025   40.00000   30   78 1491.42857   40.00000  97.3%  57.4   95s
  6480  2018 1431.42857   38   38 1491.42857   40.00000  97.3%  64.8  100s
  7207  2051 1431.42857   35   35 1491.42857   40.00000  97.3%  70.2  105s
  7946  1988 1461.42857   37   38 1491.42857   40.00000  97.3%  77.2  110s
  8363  1968  719.33967   30   63 1491.42857   40.00000  97.3%  80.6  116s
  9020  1902 infeasible   27      1491.42857   40.00000  97.3%  84.2  120s
  9707  1801 infeasible   35      1491.42857   40.00000  97.3%  87.8  125s
 10516  1695 infeasible   29      1491.42857   40.00000  97.3%  91.5  130s
 11193  1825 1470.00000   25   16 1491.42857   40.00000  97.3%  95.0  135s
 12052  1961 infeasible   28      1491.42857   40.00000  97.3%   100  141s
 12631  2122 1011.58112   26   48 1491.42857  257.48255  82.7%   102  145s
 13561  2203 infeasible   34      1491.42857  397.85714  73.3%   103  151s
 14194  2332 infeasible   29      1491.42857  636.42857  57.3%   104  156s
 15151  2380 1471.42857   26   44 1491.42857  715.71429  52.0%   106  161s
 15910  2565 1461.42857   29   47 1491.42857  715.71429  52.0%   108  166s
 16970  2759 1431.42857   30   38 1491.42857  715.71429  52.0%   110  171s
 18036  2781 1471.42857   28   15 1491.42857  755.71429  49.3%   113  176s
 18998  2889 infeasible   27      1491.42857  755.71429  49.3%   115  181s
 20247  3000 infeasible   32      1491.42857  894.64286  40.0%   117  187s
 21049  3054 infeasible   19      1491.42857  934.64286  37.3%   118  190s
 22390  3127 1460.00000   31   56 1491.42857 1011.58112  32.2%   120  197s
 23224  3136 1471.42857   25   36 1491.42857 1011.58112  32.2%   121  201s
 24101  3032 1471.42857   26   22 1491.42857 1011.58112  32.2%   122  205s
 25705  2832 infeasible   23      1491.42857 1021.58112  31.5%   125  213s
 26543  2845 1470.00000   28   55 1491.42857 1051.58112  29.5%   127  217s
 27594  2899 1430.00000   31   38 1491.42857 1051.58112  29.5%   127  222s
 29073  2906 infeasible   29      1491.42857 1051.58112  29.5%   126  226s
 30426  2763 1460.00000   27   41 1491.42857 1430.00000  4.12%   125  230s
 31871  2676 infeasible   38      1491.42857 1431.42857  4.02%   124  236s
 33485  2699 1431.42857   28   63 1491.42857 1431.42857  4.02%   125  241s
 35281  2659 1431.42857   34   17 1491.42857 1431.42857  4.02%   124  246s
 36901  2243 1471.42857   27   21 1491.42857 1431.42857  4.02%   123  251s
 39593  1682 infeasible   30      1491.42857 1431.42857  4.02%   119  256s
 43310  1047 infeasible   31      1491.42857 1470.00000  1.44%   113  261s
 45976   637 1471.42857   30   46 1491.42857 1470.00000  1.44%   110  265s
 49289   281 infeasible   29      1491.42857 1471.42857  1.34%   108  273s
 50823   188 infeasible   36      1491.42857 1471.42857  1.34%   108  277s
 52057    91 1471.42857   23   49 1491.42857 1471.42857  1.34%   108  281s
 53625    18 1471.42857   26   62 1491.42857 1471.42857  1.34%   109  287s

Cutting planes:
  Gomory: 6
  Cover: 9
  Implied bound: 24
  Clique: 1
  MIR: 5
  StrongCG: 1
  GUB cover: 6
  Zero half: 2
  RLT: 16

Explored 54064 nodes (5905036 simplex iterations) in 288.17 seconds (207.45 work units)
Thread count was 24 (of 48 available processors)

Solution count 6: 1491.43 1491.43 1531.43 ... 2443.01

Optimal solution found (tolerance 1.00e-04)
Best objective 1.491428571429e+03, best bound 1.491428571429e+03, gap 0.0000%
Gurobi status: 2
------------------------------
1:
	'id': 140203711781808, 'type':idle, 'x': 1, 'y': 1, 'd': None, 'p': None, 'tau': 0.0, 'pred': None, 'succ':None
	'id': 140203711781760, 'type':load, 'x': 1, 'y': 1, 'd': 1, 'p': 0, 'tau': 20.0, 'pred': None, 'succ':140203711781712
	'id': 140203711781712, 'type':move, 'x': 1, 'y': 5, 'd': 1, 'p': 1, 'tau': 735.714285714319, 'pred': 140203711781760, 'succ':140203711781664
	'id': 140203711781664, 'type':unload, 'x': 5, 'y': 5, 'd': 1, 'p': 2, 'tau': 755.714285714319, 'pred': 140203711781712, 'succ':140203705781360
	'id': 140203711781616, 'type':idle, 'x': 5, 'y': 5, 'd': None, 'p': None, 'tau': 755.714285714319, 'pred': None, 'succ':None
	'id': 140203711782144, 'type':move, 'x': 5, 'y': 4, 'd': None, 'p': None, 'tau': 1471.428571428638, 'pred': None, 'succ':None

2:
	'id': 140203711781856, 'type':load, 'x': 2, 'y': 2, 'd': 2, 'p': 0, 'tau': 20.0, 'pred': None, 'succ':140203711781376
	'id': 140203711781376, 'type':idle, 'x': 2, 'y': 2, 'd': 2, 'p': 1, 'tau': 20.0, 'pred': 140203711781856, 'succ':140203711541360
	'id': 140203711541360, 'type':move, 'x': 2, 'y': 5, 'd': 2, 'p': 2, 'tau': 735.714285714319, 'pred': 140203711781376, 'succ':140203705781072
	'id': 140203705781072, 'type':idle, 'x': 5, 'y': 5, 'd': 2, 'p': 3, 'tau': 735.714285714319, 'pred': 140203711541360, 'succ':140203705781120
	'id': 140203705781120, 'type':move, 'x': 5, 'y': 4, 'd': 2, 'p': 4, 'tau': 1451.428571428638, 'pred': 140203705781072, 'succ':140203705781168
	'id': 140203705781168, 'type':unload, 'x': 4, 'y': 4, 'd': 2, 'p': 5, 'tau': 1471.428571428638, 'pred': 140203705781120, 'succ':None

3:
	'id': 140203711782096, 'type':move, 'x': 3, 'y': 5, 'd': None, 'p': None, 'tau': 715.714285714319, 'pred': None, 'succ':None
	'id': 140203705781264, 'type':idle, 'x': 5, 'y': 5, 'd': None, 'p': None, 'tau': 715.714285714319, 'pred': None, 'succ':None
	'id': 140203705781312, 'type':idle, 'x': 5, 'y': 5, 'd': None, 'p': None, 'tau': 715.714285714319, 'pred': None, 'succ':None
	'id': 140203705781360, 'type':load, 'x': 5, 'y': 5, 'd': 1, 'p': 3, 'tau': 755.714285714319, 'pred': 140203711781664, 'succ':140203705781408
	'id': 140203705781408, 'type':move, 'x': 5, 'y': 3, 'd': 1, 'p': 4, 'tau': 1471.428571428638, 'pred': 140203705781360, 'succ':140203705781456
	'id': 140203705781456, 'type':unload, 'x': 3, 'y': 3, 'd': 1, 'p': 5, 'tau': 1491.428571428638, 'pred': 140203705781408, 'succ':None
------------------------------

	Saving solution in ./out/Small/S5D2U3/10/MILP-concurrent/schedule.json
saving schedule
saving metrics
